% seed = 9392529

mint = 55;
% maxt = 212;

nActs = 42;
dur = [0,9,5,4,7,6,9,5,3,7,2,9,5,1,5,1,2,2,8,4,7,2,3,10,4,7,10,6,6,1,2,3,6,8,10,9,9,7,5,2,1,0];

nSkills = 4;
sreq = [| 0,0,0,0,
	| 4,6,0,0,
	| 5,0,0,2,
	| 0,0,7,4,
	| 0,5,0,6,
	| 0,0,4,2,
	| 0,6,6,0,
	| 0,3,2,0,
	| 3,0,2,0,
	| 0,2,0,4,
	| 5,0,2,0,
	| 2,0,0,6,
	| 3,0,1,0,
	| 0,0,4,4,
	| 0,5,0,4,
	| 0,3,0,4,
	| 0,2,0,3,
	| 0,3,5,0,
	| 3,0,0,3,
	| 0,3,0,7,
	| 0,0,3,7,
	| 7,6,0,0,
	| 5,0,6,0,
	| 0,7,3,0,
	| 1,0,2,0,
	| 3,0,0,3,
	| 5,4,0,0,
	| 3,4,0,0,
	| 5,0,5,0,
	| 5,0,6,0,
	| 0,2,0,5,
	| 0,0,4,5,
	| 0,3,0,6,
	| 4,6,0,0,
	| 0,3,3,0,
	| 0,2,5,0,
	| 0,4,6,0,
	| 0,0,2,6,
	| 0,3,4,0,
	| 0,4,3,0,
	| 3,0,0,2,
	| 0,0,0,0, |];

nResources = 20;
mastery = [| true,true,true,false,
	| false,true,true,false,
	| true,false,true,false,
	| false,true,true,false,
	| false,false,true,true,
	| true,true,false,true,
	| false,false,false,true,
	| true,false,true,true,
	| true,false,true,true,
	| false,false,false,true,
	| true,true,true,false,
	| true,false,false,false,
	| false,true,false,false,
	| true,true,false,false,
	| false,false,true,false,
	| true,false,true,false,
	| false,true,true,true,
	| true,true,false,true,
	| false,true,true,false,
	| true,true,false,true, |];

nPrecs = 61;
pred = [1,1,1,2,2,2,3,3,3,4,5,5,5,6,7,8,8,9,9,10,11,11,11,12,13,14,14,15,15,15,16,17,17,17,18,19,20,21,21,22,23,24,25,26,26,27,28,29,30,31,31,32,33,34,35,36,37,38,39,40,41];
succ = [2,3,4,14,6,8,5,7,16,6,10,11,40,15,9,17,19,27,39,28,21,12,13,25,25,18,39,26,34,24,31,20,38,23,27,41,22,29,22,30,37,28,26,33,32,33,32,34,36,35,36,37,38,35,37,38,41,41,42,42,42];

nUnrels = 530;
unpred = [2,2,2,2,2,2,2,2,2,2,2,2,2,2,2,3,3,3,3,3,3,3,3,3,3,3,4,4,4,4,4,4,4,4,4,4,4,4,4,4,4,4,4,4,4,4,4,4,4,4,4,5,5,5,5,5,5,5,5,5,5,5,5,5,5,5,5,6,6,6,6,6,6,6,6,6,6,6,6,6,6,6,6,6,6,6,6,6,6,6,6,7,7,7,7,7,7,7,7,7,7,7,7,7,7,7,7,7,7,7,7,7,7,7,7,7,7,7,7,8,8,8,8,8,8,8,8,8,8,8,8,8,8,8,8,8,8,8,8,8,8,8,9,9,9,9,9,9,9,9,9,9,9,9,9,9,9,9,9,9,9,9,9,9,9,9,9,9,9,10,10,10,10,10,10,10,10,10,10,10,10,10,10,10,10,10,10,10,10,10,10,10,10,10,10,10,11,11,11,11,11,11,11,11,11,11,11,11,11,11,12,12,12,12,12,12,12,12,12,12,12,12,12,12,12,12,12,12,12,12,12,12,13,13,13,13,13,13,13,13,13,13,13,13,13,13,13,13,13,13,13,13,13,14,14,14,14,14,14,14,14,14,14,14,14,14,14,14,14,14,14,14,14,14,15,15,15,15,15,15,15,15,15,15,15,15,15,15,15,15,16,16,16,16,16,16,16,16,16,16,16,16,16,16,16,16,16,16,16,17,17,17,17,17,17,17,17,17,17,17,17,17,17,17,17,18,18,18,18,18,18,18,18,18,18,18,18,18,18,18,18,18,18,18,19,19,19,19,19,19,19,19,19,19,19,19,19,19,19,19,19,19,19,19,19,20,20,20,20,20,20,20,20,20,20,20,20,20,20,20,20,21,21,21,21,21,21,21,21,21,21,21,22,22,22,22,22,22,22,22,22,22,22,22,22,22,22,23,23,23,23,23,23,23,23,23,23,23,23,23,23,23,23,24,24,24,24,24,24,24,24,24,24,24,24,24,25,25,25,25,25,25,25,25,25,25,26,26,26,26,26,26,26,26,26,26,27,27,27,27,27,27,27,27,27,27,27,28,28,28,28,28,28,28,28,28,28,29,29,29,29,29,29,29,29,30,30,30,30,30,30,30,30,31,31,31,31,31,32,32,32,32,32,32,32,33,33,33,33,33,33,34,34,34,34,35,35,35,35,36,36,36,37,37,37,38,38,39,39,40];
unsucc = [3,4,5,7,9,10,11,12,13,16,21,25,29,31,40,4,6,8,14,15,17,18,19,20,23,24,5,7,8,9,10,11,12,13,14,16,17,18,19,20,21,22,23,25,27,29,30,31,36,39,40,6,7,8,9,14,15,16,17,18,19,20,23,24,27,31,39,7,8,9,10,11,12,13,14,16,17,18,19,20,21,22,23,25,27,29,30,31,36,39,40,8,10,11,12,13,14,15,16,17,18,19,20,21,22,23,24,25,26,28,29,30,31,32,34,35,36,37,40,9,10,11,12,13,14,15,16,18,21,24,25,26,27,28,29,31,32,33,34,35,39,40,10,11,12,13,14,15,16,17,18,19,20,21,22,23,24,25,26,28,29,30,31,32,34,35,36,37,40,11,12,13,14,15,16,17,18,19,20,21,22,23,24,25,26,27,29,30,31,33,34,35,36,38,39,40,14,15,16,17,18,19,20,23,24,27,28,31,39,40,13,14,15,16,17,18,19,20,21,22,23,24,27,28,29,30,31,34,35,36,39,40,14,15,16,17,18,19,20,21,22,23,24,27,28,29,30,31,34,35,36,39,40,15,16,17,19,20,21,22,23,24,25,26,28,29,30,31,32,34,35,36,37,40,16,17,18,19,20,21,22,23,25,27,29,30,31,36,39,40,17,18,19,20,21,22,23,24,25,26,27,28,29,30,32,33,34,39,40,18,19,21,24,25,26,27,28,29,31,32,33,34,35,39,40,19,20,21,22,23,24,25,26,28,29,30,31,32,34,35,36,37,39,40,20,21,22,23,24,25,26,27,28,29,30,31,32,33,34,35,36,37,38,39,40,21,23,24,25,26,27,28,29,31,32,33,34,35,37,39,40,23,24,25,26,27,28,31,32,33,39,40,23,24,25,26,27,28,29,31,32,33,34,35,37,39,40,24,25,26,27,28,29,30,31,32,33,34,35,36,38,39,40,25,26,27,29,30,31,33,34,35,36,38,39,40,27,28,29,30,31,34,35,36,39,40,27,28,29,30,31,34,35,36,39,40,28,29,30,31,32,34,35,36,37,39,40,29,30,31,33,34,35,36,38,39,40,30,31,32,33,36,38,39,40,31,32,33,34,35,37,39,40,32,33,34,39,40,33,34,35,36,38,39,40,34,35,36,37,39,40,36,38,39,40,36,38,39,40,37,39,40,38,39,40,39,40,40,41,41];

USEFUL_RES = [{},
	{1,2,3,4,6,8,9,11,12,13,14,16,17,18,19,20},
	{1,3,5,6,7,8,9,10,11,12,14,16,17,18,20},
	{1,2,3,4,5,6,7,8,9,10,11,15,16,17,18,19,20},
	{1,2,4,5,6,7,8,9,10,11,13,14,17,18,19,20},
	{1,2,3,4,5,6,7,8,9,10,11,15,16,17,18,19,20},
	{1,2,3,4,5,6,8,9,11,13,14,15,16,17,18,19,20},
	{1,2,3,4,5,6,8,9,11,13,14,15,16,17,18,19,20},
	{1,2,3,4,5,6,8,9,11,12,14,15,16,17,18,19,20},
	{1,2,4,5,6,7,8,9,10,11,13,14,17,18,19,20},
	{1,2,3,4,5,6,8,9,11,12,14,15,16,17,18,19,20},
	{1,3,5,6,7,8,9,10,11,12,14,16,17,18,20},
	{1,2,3,4,5,6,8,9,11,12,14,15,16,17,18,19,20},
	{1,2,3,4,5,6,7,8,9,10,11,15,16,17,18,19,20},
	{1,2,4,5,6,7,8,9,10,11,13,14,17,18,19,20},
	{1,2,4,5,6,7,8,9,10,11,13,14,17,18,19,20},
	{1,2,4,5,6,7,8,9,10,11,13,14,17,18,19,20},
	{1,2,3,4,5,6,8,9,11,13,14,15,16,17,18,19,20},
	{1,3,5,6,7,8,9,10,11,12,14,16,17,18,20},
	{1,2,4,5,6,7,8,9,10,11,13,14,17,18,19,20},
	{1,2,3,4,5,6,7,8,9,10,11,15,16,17,18,19,20},
	{1,2,3,4,6,8,9,11,12,13,14,16,17,18,19,20},
	{1,2,3,4,5,6,8,9,11,12,14,15,16,17,18,19,20},
	{1,2,3,4,5,6,8,9,11,13,14,15,16,17,18,19,20},
	{1,2,3,4,5,6,8,9,11,12,14,15,16,17,18,19,20},
	{1,3,5,6,7,8,9,10,11,12,14,16,17,18,20},
	{1,2,3,4,6,8,9,11,12,13,14,16,17,18,19,20},
	{1,2,3,4,6,8,9,11,12,13,14,16,17,18,19,20},
	{1,2,3,4,5,6,8,9,11,12,14,15,16,17,18,19,20},
	{1,2,3,4,5,6,8,9,11,12,14,15,16,17,18,19,20},
	{1,2,4,5,6,7,8,9,10,11,13,14,17,18,19,20},
	{1,2,3,4,5,6,7,8,9,10,11,15,16,17,18,19,20},
	{1,2,4,5,6,7,8,9,10,11,13,14,17,18,19,20},
	{1,2,3,4,6,8,9,11,12,13,14,16,17,18,19,20},
	{1,2,3,4,5,6,8,9,11,13,14,15,16,17,18,19,20},
	{1,2,3,4,5,6,8,9,11,13,14,15,16,17,18,19,20},
	{1,2,3,4,5,6,8,9,11,13,14,15,16,17,18,19,20},
	{1,2,3,4,5,6,7,8,9,10,11,15,16,17,18,19,20},
	{1,2,3,4,5,6,8,9,11,13,14,15,16,17,18,19,20},
	{1,2,3,4,5,6,8,9,11,13,14,15,16,17,18,19,20},
	{1,3,5,6,7,8,9,10,11,12,14,16,17,18,20},
	{}];

POTENTIAL_ACT = [{2,3,4,5,6,7,8,9,10,11,12,13,14,15,16,17,18,19,20,21,22,23,24,25,26,27,28,29,30,31,32,33,34,35,36,37,38,39,40,41},
	{2,4,5,6,7,8,9,10,11,13,14,15,16,17,18,20,21,22,23,24,25,27,28,29,30,31,32,33,34,35,36,37,38,39,40},
	{2,3,4,6,7,8,9,11,12,13,14,18,19,21,22,23,24,25,26,27,28,29,30,32,34,35,36,37,38,39,40,41},
	{2,4,5,6,7,8,9,10,11,13,14,15,16,17,18,20,21,22,23,24,25,27,28,29,30,31,32,33,34,35,36,37,38,39,40},
	{3,4,5,6,7,8,9,10,11,12,13,14,15,16,17,18,19,20,21,23,24,25,26,29,30,31,32,33,35,36,37,38,39,40,41},
	{2,3,4,5,6,7,8,9,10,11,12,13,14,15,16,17,18,19,20,21,22,23,24,25,26,27,28,29,30,31,32,33,34,35,36,37,38,39,40,41},
	{3,4,5,6,10,12,14,15,16,17,19,20,21,26,31,32,33,38,41},
	{2,3,4,5,6,7,8,9,10,11,12,13,14,15,16,17,18,19,20,21,22,23,24,25,26,27,28,29,30,31,32,33,34,35,36,37,38,39,40,41},
	{2,3,4,5,6,7,8,9,10,11,12,13,14,15,16,17,18,19,20,21,22,23,24,25,26,27,28,29,30,31,32,33,34,35,36,37,38,39,40,41},
	{3,4,5,6,10,12,14,15,16,17,19,20,21,26,31,32,33,38,41},
	{2,3,4,5,6,7,8,9,10,11,12,13,14,15,16,17,18,19,20,21,22,23,24,25,26,27,28,29,30,31,32,33,34,35,36,37,38,39,40,41},
	{2,3,9,11,12,13,19,22,23,25,26,27,28,29,30,34,41},
	{2,5,7,8,10,15,16,17,18,20,22,24,27,28,31,33,34,35,36,37,39,40},
	{2,3,5,7,8,9,10,11,12,13,15,16,17,18,19,20,22,23,24,25,26,27,28,29,30,31,33,34,35,36,37,39,40,41},
	{4,6,7,8,9,11,13,14,18,21,23,24,25,29,30,32,35,36,37,38,39,40},
	{2,3,4,6,7,8,9,11,12,13,14,18,19,21,22,23,24,25,26,27,28,29,30,32,34,35,36,37,38,39,40,41},
	{2,3,4,5,6,7,8,9,10,11,12,13,14,15,16,17,18,19,20,21,22,23,24,25,26,27,28,29,30,31,32,33,34,35,36,37,38,39,40,41},
	{2,3,4,5,6,7,8,9,10,11,12,13,14,15,16,17,18,19,20,21,22,23,24,25,26,27,28,29,30,31,32,33,34,35,36,37,38,39,40,41},
	{2,4,5,6,7,8,9,10,11,13,14,15,16,17,18,20,21,22,23,24,25,27,28,29,30,31,32,33,34,35,36,37,38,39,40},
	{2,3,4,5,6,7,8,9,10,11,12,13,14,15,16,17,18,19,20,21,22,23,24,25,26,27,28,29,30,31,32,33,34,35,36,37,38,39,40,41}];
